c File: flat50_3_0.col
c
c SOURCE: Joseph Culberson (joe@cs.ualberta.ca)
c DESCRIPTION: Quasi-random coloring problem
c              generated with flatness = 0
c                             probability = 0.139
c                             known coloring = 3
c                             random seed = 1739
c              Creation Date:  Tue Jun  9 12:16:41 1998
c Maximum degree = 8 Minimum degree = 1
c p edge 50 115
c cnf created by edge2cnf
p cnf 150 545
-1 -2 0
-1 -3 0
-2 -3 0
1 2 3 0
-4 -5 0
-4 -6 0
-5 -6 0
4 5 6 0
-7 -8 0
-7 -9 0
-8 -9 0
7 8 9 0
-10 -11 0
-10 -12 0
-11 -12 0
10 11 12 0
-13 -14 0
-13 -15 0
-14 -15 0
13 14 15 0
-16 -17 0
-16 -18 0
-17 -18 0
16 17 18 0
-19 -20 0
-19 -21 0
-20 -21 0
19 20 21 0
-22 -23 0
-22 -24 0
-23 -24 0
22 23 24 0
-25 -26 0
-25 -27 0
-26 -27 0
25 26 27 0
-28 -29 0
-28 -30 0
-29 -30 0
28 29 30 0
-31 -32 0
-31 -33 0
-32 -33 0
31 32 33 0
-34 -35 0
-34 -36 0
-35 -36 0
34 35 36 0
-37 -38 0
-37 -39 0
-38 -39 0
37 38 39 0
-40 -41 0
-40 -42 0
-41 -42 0
40 41 42 0
-43 -44 0
-43 -45 0
-44 -45 0
43 44 45 0
-46 -47 0
-46 -48 0
-47 -48 0
46 47 48 0
-49 -50 0
-49 -51 0
-50 -51 0
49 50 51 0
-52 -53 0
-52 -54 0
-53 -54 0
52 53 54 0
-55 -56 0
-55 -57 0
-56 -57 0
55 56 57 0
-58 -59 0
-58 -60 0
-59 -60 0
58 59 60 0
-61 -62 0
-61 -63 0
-62 -63 0
61 62 63 0
-64 -65 0
-64 -66 0
-65 -66 0
64 65 66 0
-67 -68 0
-67 -69 0
-68 -69 0
67 68 69 0
-70 -71 0
-70 -72 0
-71 -72 0
70 71 72 0
-73 -74 0
-73 -75 0
-74 -75 0
73 74 75 0
-76 -77 0
-76 -78 0
-77 -78 0
76 77 78 0
-79 -80 0
-79 -81 0
-80 -81 0
79 80 81 0
-82 -83 0
-82 -84 0
-83 -84 0
82 83 84 0
-85 -86 0
-85 -87 0
-86 -87 0
85 86 87 0
-88 -89 0
-88 -90 0
-89 -90 0
88 89 90 0
-91 -92 0
-91 -93 0
-92 -93 0
91 92 93 0
-94 -95 0
-94 -96 0
-95 -96 0
94 95 96 0
-97 -98 0
-97 -99 0
-98 -99 0
97 98 99 0
-100 -101 0
-100 -102 0
-101 -102 0
100 101 102 0
-103 -104 0
-103 -105 0
-104 -105 0
103 104 105 0
-106 -107 0
-106 -108 0
-107 -108 0
106 107 108 0
-109 -110 0
-109 -111 0
-110 -111 0
109 110 111 0
-112 -113 0
-112 -114 0
-113 -114 0
112 113 114 0
-115 -116 0
-115 -117 0
-116 -117 0
115 116 117 0
-118 -119 0
-118 -120 0
-119 -120 0
118 119 120 0
-121 -122 0
-121 -123 0
-122 -123 0
121 122 123 0
-124 -125 0
-124 -126 0
-125 -126 0
124 125 126 0
-127 -128 0
-127 -129 0
-128 -129 0
127 128 129 0
-130 -131 0
-130 -132 0
-131 -132 0
130 131 132 0
-133 -134 0
-133 -135 0
-134 -135 0
133 134 135 0
-136 -137 0
-136 -138 0
-137 -138 0
136 137 138 0
-139 -140 0
-139 -141 0
-140 -141 0
139 140 141 0
-142 -143 0
-142 -144 0
-143 -144 0
142 143 144 0
-145 -146 0
-145 -147 0
-146 -147 0
145 146 147 0
-148 -149 0
-148 -150 0
-149 -150 0
148 149 150 0
-67 -1 0
-68 -2 0
-69 -3 0
-85 -1 0
-86 -2 0
-87 -3 0
-118 -1 0
-119 -2 0
-120 -3 0
-118 -4 0
-119 -5 0
-120 -6 0
-67 -7 0
-68 -8 0
-69 -9 0
-76 -7 0
-77 -8 0
-78 -9 0
-88 -7 0
-89 -8 0
-90 -9 0
-130 -7 0
-131 -8 0
-132 -9 0
-145 -7 0
-146 -8 0
-147 -9 0
-148 -7 0
-149 -8 0
-150 -9 0
-55 -10 0
-56 -11 0
-57 -12 0
-64 -10 0
-65 -11 0
-66 -12 0
-70 -10 0
-71 -11 0
-72 -12 0
-79 -10 0
-80 -11 0
-81 -12 0
-139 -10 0
-140 -11 0
-141 -12 0
-145 -10 0
-146 -11 0
-147 -12 0
-55 -13 0
-56 -14 0
-57 -15 0
-82 -13 0
-83 -14 0
-84 -15 0
-91 -13 0
-92 -14 0
-93 -15 0
-97 -13 0
-98 -14 0
-99 -15 0
-118 -13 0
-119 -14 0
-120 -15 0
-73 -16 0
-74 -17 0
-75 -18 0
-130 -16 0
-131 -17 0
-132 -18 0
-133 -16 0
-134 -17 0
-135 -18 0
-136 -16 0
-137 -17 0
-138 -18 0
-145 -16 0
-146 -17 0
-147 -18 0
-70 -19 0
-71 -20 0
-72 -21 0
-109 -19 0
-110 -20 0
-111 -21 0
-112 -19 0
-113 -20 0
-114 -21 0
-139 -19 0
-140 -20 0
-141 -21 0
-148 -19 0
-149 -20 0
-150 -21 0
-64 -22 0
-65 -23 0
-66 -24 0
-100 -22 0
-101 -23 0
-102 -24 0
-106 -22 0
-107 -23 0
-108 -24 0
-115 -22 0
-116 -23 0
-117 -24 0
-145 -22 0
-146 -23 0
-147 -24 0
-55 -25 0
-56 -26 0
-57 -27 0
-133 -25 0
-134 -26 0
-135 -27 0
-85 -28 0
-86 -29 0
-87 -30 0
-88 -28 0
-89 -29 0
-90 -30 0
-115 -28 0
-116 -29 0
-117 -30 0
-67 -31 0
-68 -32 0
-69 -33 0
-133 -31 0
-134 -32 0
-135 -33 0
-142 -31 0
-143 -32 0
-144 -33 0
-58 -34 0
-59 -35 0
-60 -36 0
-61 -34 0
-62 -35 0
-63 -36 0
-61 -37 0
-62 -38 0
-63 -39 0
-94 -37 0
-95 -38 0
-96 -39 0
-97 -37 0
-98 -38 0
-99 -39 0
-100 -37 0
-101 -38 0
-102 -39 0
-103 -37 0
-104 -38 0
-105 -39 0
-106 -37 0
-107 -38 0
-108 -39 0
-118 -37 0
-119 -38 0
-120 -39 0
-127 -37 0
-128 -38 0
-129 -39 0
-61 -40 0
-62 -41 0
-63 -42 0
-94 -40 0
-95 -41 0
-96 -42 0
-103 -40 0
-104 -41 0
-105 -42 0
-133 -40 0
-134 -41 0
-135 -42 0
-142 -40 0
-143 -41 0
-144 -42 0
-52 -43 0
-53 -44 0
-54 -45 0
-55 -43 0
-56 -44 0
-57 -45 0
-94 -43 0
-95 -44 0
-96 -45 0
-100 -43 0
-101 -44 0
-102 -45 0
-124 -43 0
-125 -44 0
-126 -45 0
-127 -43 0
-128 -44 0
-129 -45 0
-64 -46 0
-65 -47 0
-66 -48 0
-67 -46 0
-68 -47 0
-69 -48 0
-76 -46 0
-77 -47 0
-78 -48 0
-91 -46 0
-92 -47 0
-93 -48 0
-112 -46 0
-113 -47 0
-114 -48 0
-124 -46 0
-125 -47 0
-126 -48 0
-139 -46 0
-140 -47 0
-141 -48 0
-148 -46 0
-149 -47 0
-150 -48 0
-52 -49 0
-53 -50 0
-54 -51 0
-58 -49 0
-59 -50 0
-60 -51 0
-79 -49 0
-80 -50 0
-81 -51 0
-130 -49 0
-131 -50 0
-132 -51 0
-109 -52 0
-110 -53 0
-111 -54 0
-124 -52 0
-125 -53 0
-126 -54 0
-106 -58 0
-107 -59 0
-108 -60 0
-130 -58 0
-131 -59 0
-132 -60 0
-136 -61 0
-137 -62 0
-138 -63 0
-118 -64 0
-119 -65 0
-120 -66 0
-130 -64 0
-131 -65 0
-132 -66 0
-115 -67 0
-116 -68 0
-117 -69 0
-145 -67 0
-146 -68 0
-147 -69 0
-109 -70 0
-110 -71 0
-111 -72 0
-112 -70 0
-113 -71 0
-114 -72 0
-127 -70 0
-128 -71 0
-129 -72 0
-142 -70 0
-143 -71 0
-144 -72 0
-118 -73 0
-119 -74 0
-120 -75 0
-130 -73 0
-131 -74 0
-132 -75 0
-142 -73 0
-143 -74 0
-144 -75 0
-145 -73 0
-146 -74 0
-147 -75 0
-127 -76 0
-128 -77 0
-129 -78 0
-130 -76 0
-131 -77 0
-132 -78 0
-133 -76 0
-134 -77 0
-135 -78 0
-109 -79 0
-110 -80 0
-111 -81 0
-139 -79 0
-140 -80 0
-141 -81 0
-142 -79 0
-143 -80 0
-144 -81 0
-106 -82 0
-107 -83 0
-108 -84 0
-115 -82 0
-116 -83 0
-117 -84 0
-136 -82 0
-137 -83 0
-138 -84 0
-103 -85 0
-104 -86 0
-105 -87 0
-139 -85 0
-140 -86 0
-141 -87 0
-136 -88 0
-137 -89 0
-138 -90 0
-145 -88 0
-146 -89 0
-147 -90 0
-109 -91 0
-110 -92 0
-111 -93 0
-112 -94 0
-113 -95 0
-114 -96 0
-127 -94 0
-128 -95 0
-129 -96 0
-145 -94 0
-146 -95 0
-147 -96 0
-106 -97 0
-107 -98 0
-108 -99 0
-121 -97 0
-122 -98 0
-123 -99 0
-136 -97 0
-137 -98 0
-138 -99 0
-103 -100 0
-104 -101 0
-105 -102 0
